120
150
22
37
96
93
40
53
57
77
51
36
100
93
55
37
26
70
57
55
68
67
27
99
63
80
94
88
76
47
27
43
33
74
24
23
80
80
62
88
70
70
37
77
77
51
88
30
43
65
100
36
35
23
69
25
53
82
50
68
64
87
21
26
93
50
63
81
96
35
57
40
88
63
53
83
62
30
81
53
50
57
47
28
93
57
99
62
20
68
74
40
100
80
39
28
84
70
31
70
23
29
80
50
65
31
96
77
33
70
23
46
40
74
43
34
77
33
93
33
40
57
